Solver command line: ['C:\\Program Files\\IBM\\ILOG\\CPLEX_Studio2211\\cplex\\bin\\x64_win64\\cplex.exe']


Welcome to IBM(R) ILOG(R) CPLEX(R) Interactive Optimizer 22.1.1.0
  with Simplex, Mixed Integer & Barrier Optimizers
5725-A06 5725-A29 5724-Y48 5724-Y49 5724-Y54 5724-Y55 5655-Y21
Copyright IBM Corp. 1988, 2022.  All Rights Reserved.

Type 'help' for a list of available commands.
Type 'help' followed by a command name for more
information on commands.

CPLEX> Logfile 'cplex.log' closed.
Logfile 'C:\Users\wangy\Documents\GitHub\re_optimization\result_site_specific\tmpb7ohg0uy.cplex.log' open.
CPLEX> Problem 'C:\Users\wangy\Documents\GitHub\re_optimization\result_site_specific\tmpc7q7i813.pyomo.lp' read.
Read time = 0.26 sec. (7.28 ticks)
CPLEX> Problem name         : C:\Users\wangy\Documents\GitHub\re_optimization\result_site_specific\tmpc7q7i813.pyomo.lp
Objective sense      : Minimize
Variables            :   52617  [Nneg: 27764,  Free: 8786,  Binary: 7,
                                 Other: 16060]
Objective nonzeros   :      14
Linear constraints   :   73052  [Less: 39437,  Greater: 3,  Equal: 33612]
  Nonzeros           :  181211
  RHS nonzeros       :    4037

Variables            : Min LB: 0.000000         Max UB: 1.000000       
Objective nonzeros   : Min   : 1.000000         Max   : 1.000000       
Linear constraints   :
  Nonzeros           : Min   : 0.004342380      Max   : 100000.0       
  RHS nonzeros       : Min   : 0.002000000      Max   : 1000.000       
CPLEX> Version identifier: 22.1.1.0 | 2022-11-27 | 9160aff4d
Tried aggregator 3 times.
MIP Presolve eliminated 47937 rows and 28958 columns.
Aggregator did 7399 substitutions.
Reduced MIP has 17716 rows, 16260 columns, and 51375 nonzeros.
Reduced MIP has 5 binaries, 0 generals, 0 SOSs, and 0 indicators.
Presolve time = 0.16 sec. (152.92 ticks)
Found incumbent of value 158638.922265 after 0.19 sec. (177.94 ticks)
Probing time = 0.00 sec. (0.98 ticks)
Tried aggregator 1 time.
Detecting symmetries...
Reduced MIP has 17716 rows, 16260 columns, and 51375 nonzeros.
Reduced MIP has 5 binaries, 0 generals, 0 SOSs, and 0 indicators.
Presolve time = 0.05 sec. (30.56 ticks)
Probing time = 0.00 sec. (0.89 ticks)
MIP emphasis: balance optimality and feasibility.
MIP search method: dynamic search.
Parallel mode: deterministic, using up to 16 threads.
Root relaxation solution time = 0.81 sec. (501.81 ticks)

        Nodes                                         Cuts/
   Node  Left     Objective  IInf  Best Integer    Best Bound    ItCnt     Gap

*     0+    0                       158638.9223    -4649.5503           102.93%
*     0+    0                         3319.1678    -4649.5503           240.08%
*     0     0      integral     0     3316.9037     3316.9037       53    0.00%
Elapsed time = 1.11 sec. (745.66 ticks, tree = 0.00 MB, solutions = 3)

Root node processing (before b&c):
  Real time             =    1.11 sec. (748.15 ticks)
Parallel b&c, 16 threads:
  Real time             =    0.00 sec. (0.00 ticks)
  Sync time (average)   =    0.00 sec.
  Wait time (average)   =    0.00 sec.
                          ------------
Total (root+branch&cut) =    1.11 sec. (748.15 ticks)

Solution pool: 3 solutions saved.

MIP - Integer optimal solution:  Objective =  3.3169036789e+03
Solution time =    1.12 sec.  Iterations = 53  Nodes = 0
Deterministic time = 748.31 ticks  (665.16 ticks/sec)

CPLEX> Incumbent solution written to file 'C:\Users\wangy\Documents\GitHub\re_optimization\result_site_specific\tmpi53h5lhn.cplex.sol'.
CPLEX> 
